NAME : e
COMMENT : 5915-city TSP (Reinelt)
TYPE : TSP
DIMENSION : 50
EDGE_WEIGHT_TYPE : EUC_2D
NODE_COORD_SECTION
1 1.81920e+04 8.95400e+03
2 1.81920e+04 9.85600e+03
3 1.81920e+04 1.13190e+04
4 1.82720e+04 8.62400e+03
5 1.84160e+04 7.34800e+03
6 1.84160e+04 8.29400e+03
7 1.20000e+03 7.37000e+03
8 1.20000e+03 8.18400e+03
9 1.20000e+03 1.09120e+04
10 1.20000e+03 1.14400e+04
11 1.79040e+04 5.72000e+02
12 1.79040e+04 2.68400e+03
13 1.79040e+04 6.90800e+03
14 1.79040e+04 7.34800e+03
15 1.79040e+04 8.62400e+03
16 8.27200e+03 3.08000e+02
17 8.27200e+03 2.06800e+03
18 8.27200e+03 2.50800e+03
19 8.27200e+03 3.08000e+03
20 8.27200e+03 3.60800e+03
21 8.27200e+03 5.30200e+03
22 8.33600e+03 7.26000e+03
23 8.46400e+03 7.26000e+03
24 8.49600e+03 9.54800e+03
25 8.49600e+03 1.05820e+04
26 8.49600e+03 1.14400e+04
27 1.58880e+04 9.06400e+03
28 1.58880e+04 9.50400e+03
29 1.58880e+04 1.02520e+04
30 1.58880e+04 1.10000e+04
31 1.59360e+04 8.18400e+03
32 1.60480e+04 8.18400e+03
33 1.62080e+04 8.18400e+03
34 1.63360e+04 5.72000e+02
35 1.63360e+04 1.01200e+03
36 1.63360e+04 1.45200e+03
37 1.63360e+04 2.99200e+03
38 1.63360e+04 4.81800e+03
39 1.63360e+04 6.02800e+03
40 1.63360e+04 7.34800e+03
41 1.04000e+03 7.37000e+03
42 1.04000e+03 8.18400e+03
43 1.04000e+03 1.09120e+04
44 1.04000e+03 1.14400e+04
45 4.46400e+03 3.08000e+02
46 4.64000e+03 3.08000e+02
47 4.81600e+03 3.08000e+02
48 4.94400e+03 3.08000e+02
49 5.16800e+03 3.08000e+02
50 5.44000e+03 3.08000e+02
EOF
